Route #1: 52 57 51 61 8 2 22 20
Route #2: 56 35 62 14 65 1 25 53
Route #3: 10 67 29 42 33 36 18 32 6
Route #4: 63 11 23 19 50 38 3 40 39
Route #5: 4 9 48 12 45 34 44 5
Route #6: 46 54 30 21 7 43 47
Route #7: 55 58 24 28 49 60
Route #8: 64 13 66 27 31 15
Route #9: 17 26 37 41 16 59
cost 1753.32080078125